Version identifier: 22.1.0.0 | 2022-03-09 | 1a383f8ce
CPXPARAM_Threads                                 1
CPXPARAM_MIP_Strategy_VariableSelect             3
CPXPARAM_TimeLimit                               599.64330044500002
1 of 1 MIP starts provided solutions.
MIP start 'm1' defined initial solution with objective 93.0000.
Tried aggregator 2 times.
MIP Presolve eliminated 39 rows and 1 columns.
MIP Presolve added 28 rows and 7 columns.
MIP Presolve modified 135 coefficients.
Aggregator did 7 substitutions.
Reduced MIP has 903 rows, 2100 columns, and 25030 nonzeros.
Reduced MIP has 2100 binaries, 0 generals, 0 SOSs, and 0 indicators.
Presolve time = 0.06 sec. (57.33 ticks)
Probing time = 0.01 sec. (7.99 ticks)
Tried aggregator 1 time.
Detecting symmetries...
MIP Presolve modified 14 coefficients.
Reduced MIP has 903 rows, 2100 columns, and 25429 nonzeros.
Reduced MIP has 2100 binaries, 0 generals, 0 SOSs, and 0 indicators.
Presolve time = 0.04 sec. (28.77 ticks)
Probing time = 0.01 sec. (8.05 ticks)
Clique table members: 593.
MIP emphasis: balance optimality and feasibility.
MIP search method: dynamic search.
Parallel mode: none, using 1 thread.
Root relaxation solution time = 0.12 sec. (114.42 ticks)

        Nodes                                         Cuts/
   Node  Left     Objective  IInf  Best Integer    Best Bound    ItCnt     Gap

*     0+    0                           93.0000     5050.0000              --- 
      0     0      100.0000   422       93.0000      100.0000     1362    7.53%
      0     0      100.0000   337       93.0000      Cuts: 22     2216    7.53%
      0     0      100.0000   172       93.0000    Cliques: 4     2580    7.53%
      0     0      100.0000   344       93.0000      Cuts: 87     3548    7.53%
Detecting symmetries...
      0     2      100.0000   103       93.0000      100.0000     3548    7.53%
Elapsed time = 3.75 sec. (3574.33 ticks, tree = 0.01 MB, solutions = 1)
      1     3      100.0000   236       93.0000      100.0000     6024    7.53%
      3     5      100.0000   272       93.0000      100.0000     8031    7.53%
      6     8      100.0000   162       93.0000      100.0000     8674    7.53%
      8    10      100.0000   281       93.0000      100.0000    10476    7.53%
      9    11      100.0000   423       93.0000      100.0000    11842    7.53%
     11    13      100.0000   180       93.0000      100.0000    12043    7.53%
     14    16      100.0000   179       93.0000      100.0000    13192    7.53%
     16    18      100.0000   195       93.0000      100.0000    14467    7.53%
     19    21      100.0000   302       93.0000      100.0000    16684    7.53%
     21    23      100.0000   173       93.0000      100.0000    17007    7.53%
Elapsed time = 7.77 sec. (7505.71 ticks, tree = 0.14 MB, solutions = 1)
     30    32      100.0000   176       93.0000      100.0000    20654    7.53%
     37    39      100.0000   172       93.0000      100.0000    25343    7.53%
     47    49      100.0000   320       93.0000      100.0000    27935    7.53%
     57    59      100.0000   194       93.0000      100.0000    31017    7.53%
     67    69      100.0000   228       93.0000      100.0000    33837    7.53%
     78    80      100.0000   178       93.0000      100.0000    36509    7.53%
     88    90      100.0000   277       93.0000      100.0000    40035    7.53%
     98   100      100.0000   260       93.0000      100.0000    43655    7.53%
    106   108      100.0000   214       93.0000      100.0000    47306    7.53%
    119   120      100.0000   155       93.0000      100.0000    49343    7.53%
Elapsed time = 18.33 sec. (17635.28 ticks, tree = 0.88 MB, solutions = 1)
    134   131       99.0000   165       93.0000      100.0000    53108    7.53%
    148   145       99.0000   139       93.0000      100.0000    56907    7.53%
    162   158       99.0000   144       93.0000      100.0000    60649    7.53%
    177   168       99.0000   177       93.0000      100.0000    67622    7.53%
    193   180       98.0000   218       93.0000      100.0000    72619    7.53%
    209   194       99.0000   186       93.0000      100.0000    76834    7.53%
    227   211       99.0000   134       93.0000      100.0000    80152    7.53%
    247   222       98.0000   155       93.0000      100.0000    85301    7.53%
    270   228       98.0000   150       93.0000      100.0000    91448    7.53%
    299   233    infeasible             93.0000      100.0000    97624    7.53%
Elapsed time = 28.60 sec. (27459.28 ticks, tree = 1.82 MB, solutions = 1)
    316   239       98.5000   195       93.0000      100.0000   104416    7.53%
    331   248       99.0000   126       93.0000      100.0000   110142    7.53%
    346   261       99.0000   139       93.0000      100.0000   113950    7.53%
    363   271       99.0000   100       93.0000      100.0000   119507    7.53%
    383   278       98.0000   234       93.0000      100.0000   126144    7.53%
    399   290       97.0000   165       93.0000      100.0000   128840    7.53%
    408   294       99.0000   178       93.0000      100.0000   135214    7.53%
    419   301       99.0000   181       93.0000      100.0000   142185    7.53%
    434   311       98.0000   147       93.0000      100.0000   147533    7.53%
    451   323       98.0000   138       93.0000      100.0000   152702    7.53%
Elapsed time = 39.38 sec. (37452.94 ticks, tree = 2.59 MB, solutions = 1)
    467   337       98.0000   132       93.0000      100.0000   156952    7.53%
    486   342       98.0000   144       93.0000      100.0000   164944    7.53%
    506   348       97.0000   149       93.0000      100.0000   172597    7.53%
    528   354       97.0000   129       93.0000      100.0000   178932    7.53%
    553   357    infeasible             93.0000      100.0000   185751    7.53%
    568   362      100.0000   233       93.0000      100.0000   189434    7.53%
    577   371      100.0000   172       93.0000      100.0000   192253    7.53%
    586   380      100.0000   180       93.0000      100.0000   195954    7.53%
    593   387      100.0000   313       93.0000      100.0000   199469    7.53%
    601   395      100.0000   211       93.0000      100.0000   202972    7.53%
Elapsed time = 49.97 sec. (47320.71 ticks, tree = 3.19 MB, solutions = 1)
    610   404      100.0000   188       93.0000      100.0000   205527    7.53%
    620   414      100.0000   156       93.0000      100.0000   208713    7.53%
    629   423      100.0000   154       93.0000      100.0000   212901    7.53%
    639   433      100.0000   310       93.0000      100.0000   216780    7.53%
    648   442      100.0000   121       93.0000      100.0000   220609    7.53%
    655   449      100.0000   327       93.0000      100.0000   225335    7.53%
    665   459      100.0000   279       93.0000      100.0000   229553    7.53%
    675   469      100.0000   187       93.0000      100.0000   232977    7.53%
    686   480      100.0000   239       93.0000      100.0000   235413    7.53%
    696   490      100.0000   227       93.0000      100.0000   238654    7.53%
Elapsed time = 60.60 sec. (57574.64 ticks, tree = 4.03 MB, solutions = 1)
    708   502      100.0000   225       93.0000      100.0000   240770    7.53%
    720   514      100.0000   174       93.0000      100.0000   243241    7.53%
    735   528      100.0000   116       93.0000      100.0000   246855    7.53%
    753   540       99.0000   113       93.0000      100.0000   252370    7.53%
    775   554       98.2018   146       93.0000      100.0000   257250    7.53%
    797   569       99.0000    95       93.0000      100.0000   262657    7.53%
    823   582       98.0000   140       93.0000      100.0000   267778    7.53%
    851   588       99.9013   238       93.0000      100.0000   274232    7.53%
    866   602       99.0000   155       93.0000      100.0000   277625    7.53%
    881   612       97.7293   191       93.0000      100.0000   283408    7.53%
Elapsed time = 71.38 sec. (67524.35 ticks, tree = 5.12 MB, solutions = 1)
    908   623       99.0000   215       93.0000      100.0000   289611    7.53%
    928   627      100.0000   186       93.0000      100.0000   294773    7.53%
    943   637      100.0000   182       93.0000      100.0000   300087    7.53%
    966   640       99.0000   173       93.0000      100.0000   306898    7.53%
    990   646        cutoff             93.0000      100.0000   311686    7.53%
   1015   656    infeasible             93.0000      100.0000   316445    7.53%
   1033   663       99.0000   185       93.0000      100.0000   321862    7.53%
   1053   673       99.0000   191       93.0000      100.0000   327281    7.53%
   1075   685       98.0000   120       93.0000      100.0000   333230    7.53%
   1097   693      100.0000   263       93.0000      100.0000   337711    7.53%
Elapsed time = 82.18 sec. (77298.44 ticks, tree = 5.85 MB, solutions = 1)
   1106   700       98.5436   147       93.0000      100.0000   343815    7.53%
   1124   709       95.0000   136       93.0000      100.0000   350369    7.53%
   1137   717      100.0000   225       93.0000      100.0000   354112    7.53%
   1146   726      100.0000   302       93.0000      100.0000   357945    7.53%
   1156   736      100.0000   241       93.0000      100.0000   360550    7.53%
   1166   746      100.0000   249       93.0000      100.0000   363935    7.53%
   1175   754      100.0000   188       93.0000      100.0000   368897    7.53%
   1187   765      100.0000   169       93.0000      100.0000   372706    7.53%
   1199   777      100.0000   186       93.0000      100.0000   376300    7.53%
   1211   788       99.7333   216       93.0000      100.0000   380813    7.53%
Elapsed time = 93.07 sec. (87413.47 ticks, tree = 6.70 MB, solutions = 1)
   1224   798      100.0000   205       93.0000      100.0000   386514    7.53%
   1238   807      100.0000   156       93.0000      100.0000   392746    7.53%
   1254   815       98.0000   157       93.0000      100.0000   400678    7.53%
   1271   821       98.0000   182       93.0000      100.0000   406327    7.53%
   1289   822    infeasible             93.0000      100.0000   413882    7.53%
   1310   824    infeasible             93.0000      100.0000   420085    7.53%
   1334   828       98.0000   151       93.0000      100.0000   425348    7.53%
   1351   834       99.5891   205       93.0000      100.0000   430518    7.53%
   1364   843       99.8000   191       93.0000      100.0000   437293    7.53%
   1417   885       99.0000   117       93.0000      100.0000   460802    7.53%
Elapsed time = 107.32 sec. (100111.39 ticks, tree = 7.56 MB, solutions = 1)
   1448   903      100.0000   161       93.0000      100.0000   469369    7.53%
*  1449+  902                           94.0000      100.0000             6.38%
   1513   939       99.0000   148       94.0000      100.0000   491488    6.38%

Performing restart 1

Repeating presolve.
Tried aggregator 1 time.
MIP Presolve eliminated 0 rows and 94 columns.
MIP Presolve modified 16 coefficients.
Reduced MIP has 903 rows, 2006 columns, and 18199 nonzeros.
Reduced MIP has 2006 binaries, 0 generals, 0 SOSs, and 0 indicators.
Presolve time = 0.01 sec. (9.80 ticks)
Tried aggregator 1 time.
Reduced MIP has 903 rows, 2006 columns, and 18199 nonzeros.
Reduced MIP has 2006 binaries, 0 generals, 0 SOSs, and 0 indicators.
Presolve time = 0.01 sec. (10.42 ticks)
Represolve time = 0.16 sec. (73.67 ticks)
   1559     0      100.0000   250       94.0000      Cuts: 10   503233    6.38%
   1559     0      100.0000   158       94.0000      Cuts: 11   503642    6.38%
   1559     0      100.0000   329       94.0000     Cuts: 122   504421    6.38%
   1559     0      100.0000   147       94.0000    Cliques: 1   504940    6.38%
   1559     0      100.0000   344       94.0000      Cuts: 27   505501    6.38%
   1559     0      100.0000   183       94.0000      Cuts: 17   506077    6.38%
   1559     0      100.0000   217       94.0000       Cuts: 9   506593    6.38%
   1559     0      100.0000   379       94.0000      Cuts: 53   507564    6.38%
   1559     2      100.0000   145       94.0000      100.0000   507564    6.38%
   1586    26      100.0000   215       94.0000      100.0000   523590    6.38%
   1619    59      100.0000   190       94.0000      100.0000   531407    6.38%
   1658    73       99.0000   149       94.0000      100.0000   562554    6.38%
   1695    78    infeasible             94.0000      100.0000   592329    6.38%
   1759    80       99.0000   232       94.0000      100.0000   608460    6.38%
   1836    87      100.0000   228       94.0000      100.0000   620292    6.38%
   1909    95       99.0000   204       94.0000      100.0000   635847    6.38%
Elapsed time = 164.77 sec. (152880.18 ticks, tree = 0.60 MB, solutions = 2)
   1954    98    infeasible             94.0000      100.0000   666164    6.38%
   1987   104      100.0000   229       94.0000      100.0000   694206    6.38%
   2048   120      100.0000   194       94.0000      100.0000   708212    6.38%
   2102   131      100.0000   207       94.0000      100.0000   724259    6.38%
   2170   140       99.0000   167       94.0000      100.0000   736103    6.38%
   2247   139        cutoff             94.0000      100.0000   751883    6.38%
   2274   153    infeasible             94.0000      100.0000   775054    6.38%
   2314   184      100.0000   300       94.0000      100.0000   784588    6.38%
   2359   227      100.0000   262       94.0000      100.0000   788698    6.38%
   2399   250      100.0000   208       94.0000      100.0000   804524    6.38%
Elapsed time = 210.53 sec. (195848.44 ticks, tree = 1.52 MB, solutions = 2)
   2458   260      100.0000   167       94.0000      100.0000   822050    6.38%
   2525   270       99.0000   163       94.0000      100.0000   832266    6.38%
   2608   279       99.0000   161       94.0000      100.0000   842675    6.38%
   2675   283      100.0000   399       94.0000      100.0000   857593    6.38%
   2729   311       96.0000    97       94.0000      100.0000   872304    6.38%
   2754   324      100.0000   355       94.0000      100.0000   888223    6.38%
   2780   350      100.0000   277       94.0000      100.0000   900877    6.38%
   2803   364       99.6410   259       94.0000      100.0000   935165    6.38%
   2847   386       98.0000   198       94.0000      100.0000   960298    6.38%
   2941   396       98.0000   167       94.0000      100.0000   970113    6.38%
Elapsed time = 251.74 sec. (234689.15 ticks, tree = 1.73 MB, solutions = 2)
   3029   410      100.0000   164       94.0000      100.0000   985279    6.38%
   3096   421       98.0000   205       94.0000      100.0000   999219    6.38%
   3149   442       98.0000   106       94.0000      100.0000  1016463    6.38%
   3227   448      100.0000   152       94.0000      100.0000  1029204    6.38%
   3316   454    infeasible             94.0000      100.0000  1040501    6.38%
   3399   459      100.0000   163       94.0000      100.0000  1052160    6.38%
   3465   465      100.0000   164       94.0000      100.0000  1068647    6.38%
   3545   469       99.0000   156       94.0000      100.0000  1081638    6.38%
   3634   475       99.0000   180       94.0000      100.0000  1092496    6.38%
   3685   482      100.0000   165       94.0000      100.0000  1111548    6.38%
Elapsed time = 293.43 sec. (273775.00 ticks, tree = 1.81 MB, solutions = 2)
   3767   487      100.0000   216       94.0000      100.0000  1123727    6.38%
   3833   502      100.0000   163       94.0000      100.0000  1138446    6.38%
   3905   521       99.0000   191       94.0000      100.0000  1149653    6.38%
   3975   542      100.0000   182       94.0000      100.0000  1158781    6.38%
   4052   552       99.0000   130       94.0000      100.0000  1171084    6.38%
   4137   556       99.0000   152       94.0000      100.0000  1183114    6.38%
   4219   556      100.0000   216       94.0000      100.0000  1196645    6.38%
   4294   562    infeasible             94.0000      100.0000  1209447    6.38%
   4372   570    infeasible             94.0000      100.0000  1221731    6.38%
   4448   587    infeasible             94.0000      100.0000  1232155    6.38%
Elapsed time = 334.69 sec. (312295.94 ticks, tree = 1.94 MB, solutions = 2)
   4538   582       99.0000   170       94.0000      100.0000  1246291    6.38%
   4619   588       99.0000   149       94.0000      100.0000  1258780    6.38%
   4699   609      100.0000   115       94.0000      100.0000  1270277    6.38%
   4795   612      100.0000   168       94.0000      100.0000  1283295    6.38%
   4872   633    infeasible             94.0000      100.0000  1294138    6.38%
   4959   650       99.0000    93       94.0000      100.0000  1304804    6.38%
   5047   671      100.0000   124       94.0000      100.0000  1315628    6.38%
   5114   720       99.0000   127       94.0000      100.0000  1321745    6.38%
   5209   733       99.0000    92       94.0000      100.0000  1333363    6.38%
   5292   753      100.0000    99       94.0000      100.0000  1345063    6.38%
Elapsed time = 375.62 sec. (350771.44 ticks, tree = 2.12 MB, solutions = 2)
   5376   783       99.0000    91       94.0000      100.0000  1353435    6.38%
   5467   799       99.0000   111       94.0000      100.0000  1364062    6.38%
   5562   812       99.0000   111       94.0000      100.0000  1375485    6.38%
   5657   827       99.0000    89       94.0000      100.0000  1386228    6.38%
   5734   869       99.0000   116       94.0000      100.0000  1392811    6.38%
   5817   890       99.0000   119       94.0000      100.0000  1403532    6.38%
   5905   904       99.0000   138       94.0000      100.0000  1415408    6.38%
   5994   916       99.0000   132       94.0000      100.0000  1428081    6.38%
   6087   927      100.0000   116       94.0000      100.0000  1439819    6.38%
   6179   941       99.0000   103       94.0000      100.0000  1452439    6.38%
Elapsed time = 417.03 sec. (389362.23 ticks, tree = 2.32 MB, solutions = 2)
   6272   956      100.0000   122       94.0000      100.0000  1463001    6.38%
   6369   967      100.0000   121       94.0000      100.0000  1474229    6.38%
   6460   983       99.0000   108       94.0000      100.0000  1484940    6.38%
   6556  1004       99.0000   125       94.0000      100.0000  1495622    6.38%
   6658  1016    infeasible             94.0000      100.0000  1507204    6.38%
   6734  1056       99.0000   110       94.0000      100.0000  1514524    6.38%
   6820  1082       99.0000   117       94.0000      100.0000  1524449    6.38%
   6914  1098      100.0000   114       94.0000      100.0000  1535006    6.38%
   6999  1125       99.0000   151       94.0000      100.0000  1544518    6.38%
   7079  1156       99.0000   112       94.0000      100.0000  1552914    6.38%
Elapsed time = 458.14 sec. (427792.24 ticks, tree = 2.59 MB, solutions = 2)
   7168  1172      100.0000   105       94.0000      100.0000  1563518    6.38%
   7254  1193       99.0000   109       94.0000      100.0000  1573680    6.38%
   7349  1204       99.0000   114       94.0000      100.0000  1584042    6.38%
   7446  1214       99.0000   115       94.0000      100.0000  1595939    6.38%
   7537  1228    infeasible             94.0000      100.0000  1606440    6.38%
   7633  1238      100.0000   111       94.0000      100.0000  1619792    6.38%
   7720  1264       99.0000   135       94.0000      100.0000  1630604    6.38%
   7796  1309       99.0000   120       94.0000      100.0000  1635544    6.38%
   7889  1320    infeasible             94.0000      100.0000  1646801    6.38%
   7986  1332       99.0000   132       94.0000      100.0000  1658494    6.38%
Elapsed time = 499.37 sec. (466246.11 ticks, tree = 2.78 MB, solutions = 2)
   8072  1348    infeasible             94.0000      100.0000  1670187    6.38%
   8149  1379       99.0000   112       94.0000      100.0000  1679759    6.38%
   8250  1377      100.0000    91       94.0000      100.0000  1691933    6.38%
   8344  1393    infeasible             94.0000      100.0000  1703721    6.38%
   8442  1417    infeasible             94.0000      100.0000  1713357    6.38%
   8531  1447      100.0000   114       94.0000      100.0000  1722210    6.38%
   8620  1473    infeasible             94.0000      100.0000  1731913    6.38%
   8721  1492    infeasible             94.0000      100.0000  1743582    6.38%
   8819  1512      100.0000   116       94.0000      100.0000  1755926    6.38%
   8908  1533      100.0000   116       94.0000      100.0000  1767049    6.38%
Elapsed time = 540.63 sec. (504558.89 ticks, tree = 3.00 MB, solutions = 2)
Starting limited solution polishing.
   9002  1551      100.0000   108       94.0000      100.0000  1778779    6.38%
   9088  1581      100.0000    97       94.0000      100.0000  1788137    6.38%
   9185  1595       99.0000    96       94.0000      100.0000  1798601    6.38%
   9275  1614       99.0000   109       94.0000      100.0000  1810142    6.38%
   9355  1642       99.0000    91       94.0000      100.0000  1818758    6.38%
   9451  1665       99.0000   131       94.0000      100.0000  1827836    6.38%
   9541  1683       99.0000   115       94.0000      100.0000  1838925    6.38%
   9627  1702      100.0000   110       94.0000      100.0000  1849197    6.38%
   9722  1715       99.0000   117       94.0000      100.0000  1859423    6.38%
   9812  1733       99.0000   101       94.0000      100.0000  1870058    6.38%
Elapsed time = 582.05 sec. (542970.09 ticks, tree = 3.21 MB, solutions = 2)
   9887  1744       99.0000    80       94.0000      100.0000  1878160    6.38%
   9978  1765       99.0000    87       94.0000      100.0000  1887903    6.38%
  10074  1776       99.0000   125       94.0000      100.0000  1898641    6.38%

Clique cuts applied:  173
Zero-half cuts applied:  21

Root node processing (before b&c):
  Real time             =    3.74 sec. (3563.45 ticks)
Sequential b&c:
  Real time             =  595.91 sec. (555851.94 ticks)
                          ------------
Total (root+branch&cut) =  599.65 sec. (559415.39 ticks)
Primal:	94
Dual:	100
Status:	Feasible
Time:	599.62
Sequence:
	10
	7
	18
	5
	12
	3
	2
	12
	6
	8
	11
	19
	5
	7
	16
	15
	4
	12
	2
	1
	13
	16
	2
	13
	19
	2
	13
	16
	2
	13
	6
	0
	15
	7
	16
	5
	14
	3
	17
	11
	6
	0
	11
	8
	1
	12
	4
	15
	7
	16
	15
	18
	12
	18
	15
	7
	0
	15
	3
	12
	8
	18
	7
	10
	3
	1
	11
	17
	6
	11
	1
	6
	10
	7
	3
	10
	7
	4
	17
	11
	4
	17
	11
	6
	0
	14
	8
	18
	12
	9
	3
	17
	11
	6
